(set-logic QF_S)
(declare-fun x () String)
(declare-fun y () String)
(declare-fun z () Int)
(assert (not (= (str.replace (str.replace "A" x "") "A" x) (str.replace x "A" (str.replace "A" x "")))))
(check-sat)
